
Gurobi 6.5.2 (linux64) logging started Wed Mar 15 12:55:47 2017


Gurobi 6.5.2 (linux64) logging started Wed Mar 15 12:55:47 2017

Optimize a model with 201 rows, 3565 columns and 7461 nonzeros
Coefficient statistics:
  Matrix range    [1e+00, 2e+00]
  Objective range [1e+00, 1e+02]
  Bounds range    [1e+00, 1e+00]
  RHS range       [1e+00, 1e+00]
Found heuristic solution: objective 3013
Presolve removed 61 rows and 4 columns
Presolve time: 0.02s
Presolved: 140 rows, 3561 columns, 7165 nonzeros
Variable types: 0 continuous, 3561 integer (3561 binary)

Root relaxation: objective 8.260000e+02, 126 iterations, 0.00 seconds

    Nodes    |    Current Node    |     Objective Bounds      |     Work
 Expl Unexpl |  Obj  Depth IntInf | Incumbent    BestBd   Gap | It/Node Time

     0     0  826.00000    0   30 3013.00000  826.00000  72.6%     -    0s
     0     0  851.90000    0   18 3013.00000  851.90000  71.7%     -    0s
     0     0  859.00000    0   14 3013.00000  859.00000  71.5%     -    0s
     0     0  860.83333    0   40 3013.00000  860.83333  71.4%     -    0s
     0     0  862.16667    0   43 3013.00000  862.16667  71.4%     -    0s
     0     0  864.16667    0   44 3013.00000  864.16667  71.3%     -    0s
     0     0  864.16667    0   47 3013.00000  864.16667  71.3%     -    0s
     0     0  864.16667    0   29 3013.00000  864.16667  71.3%     -    0s
     0     2  864.16667    0   29 3013.00000  864.16667  71.3%     -    0s
* 3920  2276             251    1346.0000000  868.50000  35.5%   5.2    4s
  4093  2376     cutoff  269      1346.00000  868.50000  35.5%   5.2    5s
H 6080  3974                    1324.0000000  869.31333  34.3%   5.1    5s
  8294  5772  879.50000   35    4 1324.00000  870.00000  34.3%   5.2   10s

Cutting planes:
  Gomory: 24
  Cover: 57
  MIR: 2
  Flow cover: 3
  Zero half: 9
  Lazy constraints: 996

Explored 9084 nodes (46557 simplex iterations) in 10.06 seconds
Thread count was 8 (of 8 available processors)

Time limit reached
Best objective 1.324000000000e+03, best bound 8.700000000000e+02, gap 34.2900%
